COLUMNS

passenger_count
pickup_ID
dropoff_ID
request_time_sec
pickup_district
dropoff_district
LDuals
IDuals
vehicle_ID
pick_position
drop_position

REQUESTS_INFO
1      1192      1094      28970     129       84        152       152       296       1         2         
1      1172      1026      29002     129       291       158       158       624       1         2         
1      1300      252       28954     192       206       193       193       670       1         2         
3      1128      665       28999     291       131       101       101       699       1         2         
1      391       511       29010     52        199       0         0         0         0         0         
1      676       813       29010     189       290       0         0         0         0         0         
1      804       1226      29010     291       192       0         0         0         0         0         
1      668       720       29012     280       290       0         0         0         0         0         
3      1088      1151      29014     291       291       0         0         0         0         0         
3      1088      1151      29014     291       291       0         0         0         0         0         
1      1022      1187      29014     291       291       0         0         0         0         0         
1      137       578       29015     286       189       0         0         0         0         0         
1      857       556       29016     290       199       0         0         0         0         0         
1      552       330       29016     189       127       0         0         0         0         0         
2      419       675       29016     168       189       0         0         0         0         0         
2      214       350       29016     207       127       0         0         0         0         0         
3      214       350       29016     207       127       0         0         0         0         0         
2      1265      1087      29017     192       291       0         0         0         0         0         
1      171       788       29017     286       290       0         0         0         0         0         
3      531       748       29017     189       290       0         0         0         0         0         
1      256       537       29017     87        189       0         0         0         0         0         
1      559       414       29019     189       100       0         0         0         0         0         
1      950       947       29019     290       290       0         0         0         0         0         
1      959       970       29021     291       290       0         0         0         0         0         
1      725       949       29023     290       290       0         0         0         0         0         
2      715       652       29024     131       189       0         0         0         0         0         
1      287       350       29024     299       127       0         0         0         0         0         
3      219       141       29024     87        54        0         0         0         0         0         
3      219       141       29024     87        54        0         0         0         0         0         
3      715       652       29024     131       189       0         0         0         0         0         
1      927       1100      29025     290       84        0         0         0         0         0         
1      409       1263      29025     52        192       0         0         0         0         0         
1      862       527       29025     290       52        0         0         0         0         0         
1      160       78        29027     54        9         0         0         0         0         0         
1      796       814       29027     290       290       0         0         0         0         0         
1      645       594       29027     280       131       0         0         0         0         0         
2      815       552       29027     290       189       0         0         0         0         0         
1      416       473       29028     100       52        0         0         0         0         0         
1      859       674       29029     290       189       0         0         0         0         0         
1      309       629       29029     127       189       0         0         0         0         0         
1      827       915       29031     291       291       0         0         0         0         0         
1      351       376       29031     52        168       0         0         0         0         0         
1      373       607       29035     119       189       0         0         0         0         0         
2      980       620       29035     291       131       0         0         0         0         0         
1      549       615       29035     52        131       0         0         0         0         0         
1      559       527       29035     189       52        0         0         0         0         0         
4      594       641       29036     131       131       0         0         0         0         0         
1      397       578       29036     168       189       0         0         0         0         0         
1      694       527       29036     189       52        0         0         0         0         0         
1      772       580       29038     290       189       0         0         0         0         0         
1      464       550       29038     168       189       0         0         0         0         0         
1      760       858       29038     291       290       0         0         0         0         0         
1      701       465       29039     290       199       0         0         0         0         0         
1      894       579       29039     291       189       0         0         0         0         0         
1      377       528       29039     168       52        0         0         0         0         0         
